(declare-const delta_y Int)
(declare-const delta___cost Int)
(declare-const delta_x Int)
(assert (exists
         ((|y'?1| Int) (|x'?2| Int) (|__cost'?3| Int) (phi_y?4 Int)
            (phi_x?5 Int) (havoc?6 Int) (x?7 Int) (y?8 Int) (__cost?9 Int))
         (and (< (+ (- x?7) y?8) 0) (<= (- __cost?9) 0)
                (<= (+ (- __cost?9) -1) 0)
                (or (and (or (< havoc?6 0) (< 0 havoc?6))
                           (= (+ (- phi_x?5) x?7) 0)
                           (= (+ (- phi_y?4) y?8 1) 0))
                      (and (= havoc?6 0) (= (+ (- phi_x?5) x?7 -1) 0)
                             (= (+ (- phi_y?4) y?8) 0)))
                (= (+ |y'?1| (- phi_y?4)) 0) (= (+ |x'?2| (- phi_x?5)) 0)
                (= (+ |__cost'?3| (- __cost?9) -1) 0)
                (= delta___cost (+ |__cost'?3| (- __cost?9)))
                (= delta_x (+ |x'?2| (- x?7))) (= delta_y (+ |y'?1| (- y?8))))))
(check-sat)
